Ag6 Sb2 S6
1.0
   6.8273743199999997    0.1832872900000000   -1.5631403500000001
  -1.9997877499999990    6.5305046400000002   -1.5631403100000001
   0.1317924100000000    0.1832872600000000    7.0027910499999999
Ag Sb S
6 2 6
direct
   0.4144743700000000    0.7398750500000000    0.9517855500000000 Ag
   0.9517855500000000    0.4144743700000000    0.7398750500000000 Ag
   0.9144743700000000    0.4517855500000000    0.2398750500000000 Ag
   0.4517855500000000    0.2398750500000000    0.9144743700000000 Ag
   0.7398750500000000    0.9517855500000000    0.4144743700000000 Ag
   0.2398750500000000    0.9144743700000000    0.4517855500000000 Ag
   0.5063495700000000    0.5063495700000000    0.5063495700000000 Sb
   0.0063495700000000    0.0063495700000000    0.0063495700000000 Sb
   0.0975735600000000    0.7648846500000001    0.7509572500000000 S
   0.7648846500000001    0.7509572500000000    0.0975735600000000 S
   0.2648846500000000    0.5975735600000001    0.2509572500000000 S
   0.5975735600000001    0.2509572500000000    0.2648846500000000 S
   0.7509572500000000    0.0975735600000000    0.7648846500000001 S
   0.2509572500000000    0.2648846500000000    0.5975735600000001 S
