Ag1 F1
1.0
   3.0139577499999999   -0.0000000000000000    1.7401080600000001
   1.0046529200000001    2.8415862199999999    1.7401080600000001
  -0.0000000200000000   -0.0000000100000000    3.4802191699999998
Ag F
1 1
direct
   0.0000000000000000   -0.0000000000000000   -0.0000000000000000 Ag
   0.5000000000000000    0.5000000000000000    0.5000000000000000 F
